data;

set A := 176627920 262381962 33380548 907818928 118146106 556462978 684539942 834737460 801803110 944373666 916187819 750958922 597193474 367295210 206326014 266608055 577725060 893013303 786081587 165233852 996523885 612926589 66740743 558784594 860435593 147694603 614301730 159456622 410085163 757759948 631342422 845963583 68655731 870737282 571633630 695119981 412658825 302886923 137033122 402608730;
param T := 10000000000;

end;
